SDVRPTW/PR06.vrp
NAME: PR06
COMMENT: Based on Cordeau and Laporte (2001).
TYPE: SDVRPTW
EDGE_WEIGHT_TYPE: EUC_2D
DIMENSION: 289
VEHICLES: 28
VEHICLES_MAX_DURATION: 500
NODE_COORD_SECTION
1	18.488	-4.745
2	-26.599	-50.415
3	32.99	-35.767
4	17.78	-14.044
5	-19.708	-27.6
6	26.007	39.27
7	-4.315	-7.166
8	-14.636	-40.906
9	9.052	-28.381
10	7.159	-19.171
11	8.087	-60.339
12	-51.52	45.697
13	92.395	15.039
14	63.556	-13.025
15	25.714	-18.573
16	41.541	-26.318
17	0.006	-73.206
18	-73.352	-46.521
19	-57.227	22.089
20	-18.372	-42.267
21	51.764	21.436
22	-70.996	-2.527
23	24.939	35.095
24	15.253	-34.937
25	31.091	28.845
26	16.437	-20.74
27	59.692	40.546
28	-15.936	78.101
29	-4.236	-52.222
30	9.247	-14.722
31	11.462	-10.034
32	70.282	53.497
33	39.526	-49.115
34	89.606	30.585
35	60.895	-60.4
36	43.652	53.912
37	3.68	4.504
38	32.336	-40.875
39	54.791	0.61
40	80.487	-64.923
41	50.25	-47.65
42	45.404	10.706
43	48.932	82.941
44	41.4	-20.111
45	45.239	-71.399
46	29.498	-18.292
47	54.62	-30.09
48	-17.743	9.668
49	54.169	13.745
50	21.466	17.517
51	40.173	15.912
52	70.599	-53.308
53	68.982	55.853
54	36.151	45.081
55	45.02	-56.799
56	-13.617	-37.646
57	-20.007	-70.49
58	-37.952	15.259
59	43.982	54.73
60	-2.063	-55.255
61	95.447	-10.864
62	10.162	-29.303
63	38.794	-1.343
64	7.8	39.795
65	59.827	17.059
66	23.157	-3.613
67	-18.689	-46.082
68	41.162	-55.701
69	-4.492	-65.601
70	-22.009	-24.548
71	76.746	-10.284
72	26.343	-10.15
73	-13.879	-78.888
74	7.281	7.202
75	11.591	49.31
76	43.164	-1.636
77	38.544	64.191
78	-40.308	-56.445
79	6.757	47.29
80	37.543	81.061
81	-58.691	-46.558
82	52.313	34.717
83	-14.41	-42.194
84	-35.138	-52.094
85	54.26	29.712
86	-21.674	-6.073
87	23.645	-35.681
88	50.8	-16.821
89	36.023	10.773
90	2.35	-16.18
91	-52.924	40.356
92	22.98	-54.181
93	-12.83	0.177
94	82.477	74.963
95	-62.72	8.038
96	28.4	-27.057
97	27.985	-15.912
98	66.284	-26.245
99	11.804	-17.334
100	43.707	0.409
101	37.451	-36.42
102	-18.805	86.713
103	21.051	48.309
104	-83.02	-85.339
105	-19.415	-9.625
106	12.976	51.575
107	74.207	69.849
108	-58.978	-11.096
109	78.174	10.992
110	25.189	47.394
111	-1.477	-8.82
112	48.889	2.588
113	69.037	32.819
114	84.973	-2.039
115	-40.521	-6.641
116	44.879	-0.092
117	-11.023	6.812
118	46.204	-17.596
119	0.757	-32.788
120	27.899	-30.914
121	64.355	45.862
122	-3.467	-6.384
123	26.331	-46.967
124	28.821	-7.794
125	26.178	7.202
126	47.766	54.364
127	39.966	-22.839
128	14.142	-16.034
129	34.155	-19.122
130	31.75	54.358
131	-50.214	84.717
132	81.323	-51.587
133	-4.645	-26.776
134	26.678	-44.141
135	-3.052	-1.495
136	30.225	43.164
137	7.819	73.907
138	57.397	42.554
139	23.688	-48.816
140	74.866	-38.715
141	-8.453	-12.573
142	5.237	-11.212
143	47.62	44.366
144	-18.597	-2.57
145	50.47	18.756
146	42.157	64.746
147	96.051	-67.59
148	6.921	-24.457
149	55.994	-20.325
150	42.157	-54.663
151	45.435	45.41
152	-19.891	-49.286
153	-60.046	-76.849
154	55.566	38.599
155	7.135	17.95
156	6.689	-22.656
157	39.41	11.682
158	37.512	82.794
159	66.467	49.182
160	-6.744	-13.989
161	56.165	18.091
162	35.791	21.869
163	76.868	29.285
164	65.326	36.261
165	-1.306	97.784
166	10.083	74.182
167	27.618	47.205
168	-3.821	-50.934
169	32.452	28.693
170	11.597	-32.635
171	-2.594	58.691
172	52.911	45.007
173	-18.817	88.58
174	81.812	77.612
175	1.495	61.572
176	53.656	39.49
177	13.8	44.049
178	-27.478	-20.758
179	2.57	-34.857
180	2.399	53.168
181	-1.324	83.74
182	26.251	43.134
183	48.364	60.938
184	35.004	-13.428
185	-62.83	-20.056
186	43.817	-89.404
187	57.294	28.101
188	9.106	-4.449
189	53.284	67.542
190	28.503	77.966
191	56.83	-67.926
192	51.862	70.691
193	52.032	24.188
194	70.178	35.199
195	-25.531	-25.195
196	55.56	22.424
197	19.055	-10.608
198	75.696	69.031
199	81.702	6.732
200	-22.113	63.953
201	-7.098	-14.24
202	42.242	37.061
203	88.544	-58.319
204	46.039	16.638
205	46.887	10.15
206	15.039	-6.903
207	57.159	-59.515
208	-4.199	-21.991
209	69.482	29.919
210	9.93	54.114
211	-32.428	53.387
212	23.444	54.944
213	68.512	68.317
214	81.866	42.072
215	12.335	-76.672
216	77.252	-17.963
217	-40.71	-72.26
218	-20.618	-18.665
219	51.868	41.345
220	45.673	33.35
221	-49.432	14.96
222	-48.279	-15.643
223	-42.786	-18.353
224	19.922	-9.149
225	24.518	-28.003
226	39.099	-24.023
227	83.716	-57.886
228	41.455	5.505
229	47.174	-36.285
230	-28.925	-20.648
231	25.934	-46.606
232	27.405	77.545
233	75.897	19.006
234	33.899	-20.923
235	-44.91	-65.68
236	-4.755	-25.751
237	53.723	-46.741
238	38.464	43.787
239	-21.112	-27.582
240	-7.66	-56.677
241	32.513	31.396
242	56.091	70.782
243	-21.326	-21.417
244	55.902	-31.177
245	72.119	31.763
246	4.071	-8.002
247	-11.414	3.003
248	54.84	53.693
249	22.699	46.997
250	7.587	-17.499
251	5.896	69.861
252	55.011	98.767
253	-9.351	-36.456
254	39.319	-54.199
255	43.451	-17.584
256	17.169	-62.042
257	34.65	-7.678
258	64.752	33.301
259	2.924	-25.763
260	45.404	15.741
261	54.694	22.314
262	-15.405	-12.952
263	31.683	-21.844
264	22.174	53.149
265	42.767	31.641
266	30.402	-23.26
267	16.449	80.701
268	-7.361	-32.324
269	0.024	41.956
270	10.15	-15.253
271	33.313	-19.092
272	16.522	95.453
273	-68.506	-32.721
274	-25.806	-20.636
275	14.197	38.538
276	24.988	-24.658
277	33.893	15.979
278	37.5	-13.385
279	9.167	-32.874
280	-40.308	68.945
281	70.184	56.03
282	-30.566	-10.37
283	14.209	-12.085
284	36.963	44.897
285	-21.027	-58.649
286	24.133	-17.712
287	36.792	-11.603
288	59.753	5.817
289	25.214	-87.634
DEMAND_SECTION
1	0
2	9
3	7
4	22
5	16
6	9
7	5
8	19
9	6
10	16
11	16
12	4
13	13
14	15
15	21
16	7
17	12
18	24
19	15
20	19
21	16
22	18
23	23
24	3
25	6
26	20
27	14
28	24
29	8
30	8
31	25
32	23
33	1
34	5
35	20
36	20
37	15
38	12
39	21
40	19
41	24
42	16
43	2
44	24
45	2
46	10
47	21
48	19
49	11
50	18
51	6
52	4
53	21
54	15
55	12
56	22
57	3
58	19
59	14
60	21
61	10
62	6
63	4
64	13
65	12
66	10
67	1
68	5
69	17
70	20
71	18
72	8
73	5
74	4
75	22
76	19
77	24
78	24
79	7
80	24
81	24
82	15
83	19
84	5
85	14
86	18
87	25
88	14
89	14
90	2
91	6
92	8
93	16
94	4
95	23
96	4
97	23
98	18
99	2
100	16
101	3
102	16
103	10
104	20
105	12
106	23
107	23
108	23
109	14
110	9
111	2
112	12
113	24
114	5
115	2
116	15
117	18
118	25
119	1
120	23
121	15
122	5
123	3
124	3
125	17
126	17
127	21
128	24
129	15
130	9
131	23
132	6
133	2
134	14
135	2
136	22
137	24
138	13
139	12
140	6
141	7
142	9
143	4
144	2
145	7
146	15
147	20
148	14
149	5
150	14
151	23
152	22
153	13
154	19
155	18
156	10
157	16
158	17
159	25
160	8
161	2
162	21
163	2
164	22
165	3
166	15
167	8
168	10
169	10
170	13
171	6
172	11
173	10
174	22
175	20
176	11
177	20
178	8
179	3
180	17
181	8
182	12
183	5
184	5
185	18
186	6
187	23
188	14
189	17
190	1
191	16
192	19
193	10
194	23
195	4
196	1
197	19
198	24
199	16
200	9
201	14
202	3
203	2
204	13
205	23
206	24
207	5
208	18
209	19
210	18
211	12
212	23
213	5
214	3
215	5
216	16
217	14
218	3
219	16
220	14
221	16
222	16
223	5
224	14
225	18
226	5
227	13
228	9
229	13
230	1
231	23
232	3
233	18
234	8
235	14
236	20
237	14
238	24
239	16
240	4
241	7
242	20
243	4
244	9
245	10
246	15
247	10
248	4
249	21
250	10
251	16
252	19
253	24
254	23
255	16
256	19
257	5
258	14
259	12
260	8
261	15
262	1
263	13
264	25
265	23
266	11
267	10
268	25
269	6
270	17
271	15
272	8
273	10
274	12
275	5
276	8
277	17
278	23
279	19
280	7
281	14
282	19
283	3
284	4
285	13
286	7
287	20
288	6
289	8
SERVICE_TIME_SECTION
1	0
2	5
3	21
4	18
5	20
6	5
7	16
8	24
9	7
10	1
11	14
12	5
13	11
14	21
15	22
16	18
17	17
18	16
19	11
20	24
21	12
22	8
23	15
24	10
25	14
26	10
27	21
28	7
29	16
30	14
31	4
32	23
33	14
34	5
35	13
36	21
37	7
38	24
39	8
40	10
41	24
42	19
43	1
44	23
45	1
46	11
47	15
48	17
49	20
50	14
51	12
52	16
53	22
54	21
55	24
56	14
57	17
58	25
59	10
60	10
61	1
62	11
63	10
64	2
65	18
66	7
67	4
68	22
69	1
70	8
71	21
72	11
73	9
74	13
75	20
76	12
77	24
78	15
79	21
80	23
81	11
82	16
83	9
84	24
85	3
86	14
87	15
88	8
89	19
90	20
91	13
92	11
93	19
94	13
95	4
96	13
97	3
98	24
99	17
100	2
101	23
102	12
103	6
104	10
105	19
106	1
107	25
108	7
109	8
110	21
111	22
112	24
113	3
114	16
115	24
116	23
117	19
118	12
119	12
120	22
121	3
122	19
123	9
124	18
125	14
126	3
127	7
128	14
129	6
130	14
131	5
132	3
133	4
134	4
135	10
136	13
137	10
138	22
139	17
140	11
141	17
142	18
143	9
144	5
145	11
146	6
147	20
148	25
149	1
150	15
151	14
152	12
153	6
154	12
155	17
156	2
157	12
158	23
159	22
160	7
161	22
162	19
163	9
164	4
165	11
166	3
167	23
168	16
169	1
170	5
171	5
172	9
173	14
174	5
175	20
176	4
177	6
178	13
179	17
180	4
181	6
182	3
183	21
184	24
185	19
186	23
187	3
188	20
189	17
190	2
191	12
192	2
193	9
194	5
195	5
196	18
197	13
198	23
199	22
200	13
201	7
202	25
203	13
204	25
205	4
206	8
207	23
208	8
209	16
210	12
211	9
212	2
213	20
214	7
215	19
216	2
217	20
218	2
219	4
220	11
221	9
222	15
223	18
224	11
225	17
226	15
227	25
228	17
229	15
230	19
231	24
232	11
233	20
234	8
235	24
236	14
237	24
238	22
239	16
240	10
241	10
242	10
243	5
244	8
245	24
246	9
247	20
248	21
249	10
250	19
251	8
252	18
253	9
254	20
255	7
256	17
257	25
258	21
259	24
260	1
261	25
262	17
263	8
264	20
265	3
266	21
267	12
268	19
269	19
270	1
271	24
272	17
273	14
274	13
275	3
276	4
277	20
278	14
279	16
280	11
281	3
282	14
283	16
284	23
285	3
286	25
287	16
288	19
289	6
TIME_WINDOW_SECTION
1	0	1000
2	217	383
3	164	334
4	317	470
5	457	575
6	289	384
7	290	425
8	325	504
9	120	224
10	133	300
11	248	361
12	165	296
13	200	339
14	132	258
15	263	395
16	70	179
17	259	370
18	237	386
19	145	312
20	70	225
21	449	595
22	462	615
23	401	493
24	350	441
25	185	329
26	268	439
27	132	282
28	86	253
29	322	439
30	212	388
31	145	306
32	221	375
33	460	611
34	389	557
35	324	477
36	98	244
37	180	353
38	289	443
39	113	287
40	123	297
41	444	612
42	81	203
43	410	587
44	401	578
45	104	210
46	364	543
47	157	333
48	351	483
49	138	267
50	404	544
51	235	344
52	176	355
53	474	571
54	299	399
55	363	510
56	377	480
57	340	459
58	373	546
59	372	546
60	171	327
61	444	604
62	296	441
63	363	529
64	265	420
65	280	380
66	474	568
67	186	288
68	331	432
69	202	333
70	221	322
71	340	474
72	412	570
73	302	464
74	305	442
75	85	202
76	386	549
77	284	390
78	177	284
79	339	458
80	439	569
81	337	496
82	410	576
83	422	530
84	419	514
85	477	642
86	244	353
87	428	595
88	197	339
89	63	207
90	338	453
91	389	549
92	187	331
93	391	565
94	215	330
95	436	544
96	337	457
97	322	498
98	62	216
99	279	376
100	122	259
101	459	595
102	174	269
103	107	198
104	372	478
105	340	474
106	132	271
107	379	473
108	223	329
109	415	509
110	236	386
111	100	215
112	94	254
113	397	548
114	159	303
115	290	420
116	215	394
117	290	401
118	279	418
119	468	581
120	147	311
121	314	469
122	226	398
123	344	500
124	131	255
125	151	330
126	108	230
127	392	510
128	92	264
129	444	570
130	211	364
131	80	252
132	462	609
133	258	368
134	445	607
135	440	604
136	238	371
137	153	332
138	359	464
139	86	217
140	221	378
141	380	536
142	156	297
143	206	298
144	124	266
145	73	169
146	185	313
147	471	569
148	455	576
149	374	477
150	178	281
151	144	317
152	354	521
153	165	298
154	309	428
155	185	346
156	209	346
157	345	497
158	325	482
159	470	571
160	233	353
161	294	393
162	90	213
163	117	255
164	456	613
165	376	481
166	282	384
167	476	632
168	451	575
169	386	551
170	312	455
171	312	428
172	62	214
173	274	431
174	181	320
175	369	482
176	291	424
177	166	290
178	393	519
179	127	287
180	137	242
181	142	314
182	342	479
183	167	295
184	315	422
185	156	261
186	226	356
187	73	205
188	416	592
189	120	234
190	168	334
191	279	376
192	417	595
193	150	261
194	339	479
195	286	406
196	257	408
197	119	251
198	402	521
199	401	499
200	402	504
201	217	313
202	368	507
203	270	433
204	476	631
205	401	497
206	349	506
207	93	199
208	143	286
209	432	567
210	475	576
211	312	461
212	148	242
213	476	601
214	126	282
215	198	363
216	158	321
217	197	340
218	251	410
219	378	538
220	118	219
221	98	228
222	406	547
223	477	580
224	88	243
225	80	212
226	127	270
227	276	383
228	228	386
229	265	420
230	474	579
231	191	345
232	115	250
233	289	401
234	272	382
235	227	389
236	306	396
237	436	541
238	63	229
239	352	487
240	280	418
241	411	580
242	337	488
243	186	307
244	327	419
245	366	542
246	350	465
247	108	264
248	219	330
249	410	502
250	445	557
251	420	532
252	152	327
253	267	398
254	340	459
255	253	411
256	159	332
257	363	539
258	91	210
259	404	538
260	103	262
261	121	216
262	375	548
263	452	624
264	241	396
265	199	325
266	403	526
267	237	372
268	280	391
269	264	357
270	199	377
271	230	356
272	252	383
273	278	405
274	92	243
275	384	563
276	303	452
277	276	407
278	369	477
279	399	507
280	205	335
281	284	400
282	239	360
283	149	318
284	303	471
285	406	500
286	319	410
287	266	435
288	77	208
289	225	351
CAPACITY_SECTION
1	100
2	100
3	100
4	100
5	100
6	100
7	100
8	150
9	150
10	150
11	150
12	150
13	150
14	150
15	200
16	200
17	200
18	200
19	200
20	200
21	200
22	250
23	250
24	250
25	250
26	250
27	250
28	250
VEHICLES_ALLOWED_CLIENTS_SECTION
1	2	3	4	5	6	7	8	9	10	11	12	13	14	15	16	17	18	19	20	21	22	23	24	25	26	27	28	29	30	31	32	33	34	35	36	37	38	39	40	41	42	43	44	45	46	47	48	49	50	51	52	53	54	55	56	57	58	59	60	61	62	63	64	65	66	67	68	69	70	71	72	73	74	79	80	82	87	89	93	95	98	99	100	101	103	109	111	112	115	118	120	122	125	126	128	130	131	134	135	137	138	141	142	144	146	148	150	151	152	156	157	158	159	160	163	167	168	169	171	172	173	174	175	177	179	180	181	182	183	184	185	186	190	191	192	193	194	195	199	201	204	208	209	210	213	215	216	217	219	224	226	231	233	243	253	262	263	267	275	276	278	280	281	282	283	284
2	2	3	4	5	6	7	8	9	10	11	12	13	14	15	16	17	18	19	20	21	22	23	24	25	26	27	28	29	30	31	32	33	34	35	36	37	38	39	40	41	42	43	44	45	46	47	48	49	50	51	52	53	54	55	56	57	58	59	60	61	62	63	64	65	66	67	68	69	70	71	72	73	74	79	80	82	87	89	93	95	98	99	100	101	103	109	111	112	115	118	120	122	125	126	128	130	131	134	135	137	138	141	142	144	146	148	150	151	152	156	157	158	159	160	163	167	168	169	171	172	173	174	175	177	179	180	181	182	183	184	185	186	190	191	192	193	194	195	199	201	204	208	209	210	213	215	216	217	219	224	226	231	233	243	253	262	263	267	275	276	278	280	281	282	283	284
3	2	3	4	5	6	7	8	9	10	11	12	13	14	15	16	17	18	19	20	21	22	23	24	25	26	27	28	29	30	31	32	33	34	35	36	37	38	39	40	41	42	43	44	45	46	47	48	49	50	51	52	53	54	55	56	57	58	59	60	61	62	63	64	65	66	67	68	69	70	71	72	73	74	79	80	82	87	89	93	95	98	99	100	101	103	109	111	112	115	118	120	122	125	126	128	130	131	134	135	137	138	141	142	144	146	148	150	151	152	156	157	158	159	160	163	167	168	169	171	172	173	174	175	177	179	180	181	182	183	184	185	186	190	191	192	193	194	195	199	201	204	208	209	210	213	215	216	217	219	224	226	231	233	243	253	262	263	267	275	276	278	280	281	282	283	284
4	2	3	4	5	6	7	8	9	10	11	12	13	14	15	16	17	18	19	20	21	22	23	24	25	26	27	28	29	30	31	32	33	34	35	36	37	38	39	40	41	42	43	44	45	46	47	48	49	50	51	52	53	54	55	56	57	58	59	60	61	62	63	64	65	66	67	68	69	70	71	72	73	74	79	80	82	87	89	93	95	98	99	100	101	103	109	111	112	115	118	120	122	125	126	128	130	131	134	135	137	138	141	142	144	146	148	150	151	152	156	157	158	159	160	163	167	168	169	171	172	173	174	175	177	179	180	181	182	183	184	185	186	190	191	192	193	194	195	199	201	204	208	209	210	213	215	216	217	219	224	226	231	233	243	253	262	263	267	275	276	278	280	281	282	283	284
5	2	3	4	5	6	7	8	9	10	11	12	13	14	15	16	17	18	19	20	21	22	23	24	25	26	27	28	29	30	31	32	33	34	35	36	37	38	39	40	41	42	43	44	45	46	47	48	49	50	51	52	53	54	55	56	57	58	59	60	61	62	63	64	65	66	67	68	69	70	71	72	73	74	79	80	82	87	89	93	95	98	99	100	101	103	109	111	112	115	118	120	122	125	126	128	130	131	134	135	137	138	141	142	144	146	148	150	151	152	156	157	158	159	160	163	167	168	169	171	172	173	174	175	177	179	180	181	182	183	184	185	186	190	191	192	193	194	195	199	201	204	208	209	210	213	215	216	217	219	224	226	231	233	243	253	262	263	267	275	276	278	280	281	282	283	284
6	2	3	4	5	6	7	8	9	10	11	12	13	14	15	16	17	18	19	20	21	22	23	24	25	26	27	28	29	30	31	32	33	34	35	36	37	38	39	40	41	42	43	44	45	46	47	48	49	50	51	52	53	54	55	56	57	58	59	60	61	62	63	64	65	66	67	68	69	70	71	72	73	74	79	80	82	87	89	93	95	98	99	100	101	103	109	111	112	115	118	120	122	125	126	128	130	131	134	135	137	138	141	142	144	146	148	150	151	152	156	157	158	159	160	163	167	168	169	171	172	173	174	175	177	179	180	181	182	183	184	185	186	190	191	192	193	194	195	199	201	204	208	209	210	213	215	216	217	219	224	226	231	233	243	253	262	263	267	275	276	278	280	281	282	283	284
7	2	3	4	5	6	7	8	9	10	11	12	13	14	15	16	17	18	19	20	21	22	23	24	25	26	27	28	29	30	31	32	33	34	35	36	37	38	39	40	41	42	43	44	45	46	47	48	49	50	51	52	53	54	55	56	57	58	59	60	61	62	63	64	65	66	67	68	69	70	71	72	73	74	79	80	82	87	89	93	95	98	99	100	101	103	109	111	112	115	118	120	122	125	126	128	130	131	134	135	137	138	141	142	144	146	148	150	151	152	156	157	158	159	160	163	167	168	169	171	172	173	174	175	177	179	180	181	182	183	184	185	186	190	191	192	193	194	195	199	201	204	208	209	210	213	215	216	217	219	224	226	231	233	243	253	262	263	267	275	276	278	280	281	282	283	284
8	2	3	4	5	6	7	8	9	10	11	12	13	14	15	16	17	18	19	20	21	22	23	24	25	26	27	28	29	30	31	32	33	34	35	36	37	38	39	40	41	42	43	44	45	46	47	48	49	50	51	52	53	54	55	56	57	58	59	60	61	62	63	64	65	66	67	68	69	70	71	72	73	76	77	81	82	85	86	90	93	94	95	101	103	105	106	108	109	110	111	112	113	114	119	121	126	127	128	129	130	131	134	140	142	143	145	146	147	151	153	156	157	158	162	163	164	166	170	174	175	177	178	179	182	184	186	199	204	207	210	211	212	214	229	232	235	238	240	244	247	248	255	257	259	265	268	272
9	2	3	4	5	6	7	8	9	10	11	12	13	14	15	16	17	18	19	20	21	22	23	24	25	26	27	28	29	30	31	32	33	34	35	36	37	38	39	40	41	42	43	44	45	46	47	48	49	50	51	52	53	54	55	56	57	58	59	60	61	62	63	64	65	66	67	68	69	70	71	72	73	76	77	81	82	85	86	90	93	94	95	101	103	105	106	108	109	110	111	112	113	114	119	121	126	127	128	129	130	131	134	140	142	143	145	146	147	151	153	156	157	158	162	163	164	166	170	174	175	177	178	179	182	184	186	199	204	207	210	211	212	214	229	232	235	238	240	244	247	248	255	257	259	265	268	272
10	2	3	4	5	6	7	8	9	10	11	12	13	14	15	16	17	18	19	20	21	22	23	24	25	26	27	28	29	30	31	32	33	34	35	36	37	38	39	40	41	42	43	44	45	46	47	48	49	50	51	52	53	54	55	56	57	58	59	60	61	62	63	64	65	66	67	68	69	70	71	72	73	76	77	81	82	85	86	90	93	94	95	101	103	105	106	108	109	110	111	112	113	114	119	121	126	127	128	129	130	131	134	140	142	143	145	146	147	151	153	156	157	158	162	163	164	166	170	174	175	177	178	179	182	184	186	199	204	207	210	211	212	214	229	232	235	238	240	244	247	248	255	257	259	265	268	272
11	2	3	4	5	6	7	8	9	10	11	12	13	14	15	16	17	18	19	20	21	22	23	24	25	26	27	28	29	30	31	32	33	34	35	36	37	38	39	40	41	42	43	44	45	46	47	48	49	50	51	52	53	54	55	56	57	58	59	60	61	62	63	64	65	66	67	68	69	70	71	72	73	76	77	81	82	85	86	90	93	94	95	101	103	105	106	108	109	110	111	112	113	114	119	121	126	127	128	129	130	131	134	140	142	143	145	146	147	151	153	156	157	158	162	163	164	166	170	174	175	177	178	179	182	184	186	199	204	207	210	211	212	214	229	232	235	238	240	244	247	248	255	257	259	265	268	272
12	2	3	4	5	6	7	8	9	10	11	12	13	14	15	16	17	18	19	20	21	22	23	24	25	26	27	28	29	30	31	32	33	34	35	36	37	38	39	40	41	42	43	44	45	46	47	48	49	50	51	52	53	54	55	56	57	58	59	60	61	62	63	64	65	66	67	68	69	70	71	72	73	76	77	81	82	85	86	90	93	94	95	101	103	105	106	108	109	110	111	112	113	114	119	121	126	127	128	129	130	131	134	140	142	143	145	146	147	151	153	156	157	158	162	163	164	166	170	174	175	177	178	179	182	184	186	199	204	207	210	211	212	214	229	232	235	238	240	244	247	248	255	257	259	265	268	272
13	2	3	4	5	6	7	8	9	10	11	12	13	14	15	16	17	18	19	20	21	22	23	24	25	26	27	28	29	30	31	32	33	34	35	36	37	38	39	40	41	42	43	44	45	46	47	48	49	50	51	52	53	54	55	56	57	58	59	60	61	62	63	64	65	66	67	68	69	70	71	72	73	76	77	81	82	85	86	90	93	94	95	101	103	105	106	108	109	110	111	112	113	114	119	121	126	127	128	129	130	131	134	140	142	143	145	146	147	151	153	156	157	158	162	163	164	166	170	174	175	177	178	179	182	184	186	199	204	207	210	211	212	214	229	232	235	238	240	244	247	248	255	257	259	265	268	272
14	2	3	4	5	6	7	8	9	10	11	12	13	14	15	16	17	18	19	20	21	22	23	24	25	26	27	28	29	30	31	32	33	34	35	36	37	38	39	40	41	42	43	44	45	46	47	48	49	50	51	52	53	54	55	56	57	58	59	60	61	62	63	64	65	66	67	68	69	70	71	72	73	76	77	81	82	85	86	90	93	94	95	101	103	105	106	108	109	110	111	112	113	114	119	121	126	127	128	129	130	131	134	140	142	143	145	146	147	151	153	156	157	158	162	163	164	166	170	174	175	177	178	179	182	184	186	199	204	207	210	211	212	214	229	232	235	238	240	244	247	248	255	257	259	265	268	272
15	2	3	4	5	6	7	8	9	10	11	12	13	14	15	16	17	18	19	20	21	22	23	24	25	26	27	28	29	30	31	32	33	34	35	36	37	38	39	40	41	42	43	44	45	46	47	48	49	50	51	52	53	54	55	56	57	58	59	60	61	62	63	64	65	66	67	68	69	70	71	72	73	75	76	77	78	81	83	84	85	86	88	90	91	92	94	96	97	102	104	105	106	107	108	110	113	114	116	117	119	121	123	124	127	129	132	133	136	139	140	143	145	147	149	153	154	155	161	162	164	165	166	170	176	178	187	188	189	196	197	198	200	202	203	205	206	207	211	212	214	218	220	221	222	230	234	236	241	246	251	256	258	260	261	266	269	270	271	273	279	286
16	2	3	4	5	6	7	8	9	10	11	12	13	14	15	16	17	18	19	20	21	22	23	24	25	26	27	28	29	30	31	32	33	34	35	36	37	38	39	40	41	42	43	44	45	46	47	48	49	50	51	52	53	54	55	56	57	58	59	60	61	62	63	64	65	66	67	68	69	70	71	72	73	75	76	77	78	81	83	84	85	86	88	90	91	92	94	96	97	102	104	105	106	107	108	110	113	114	116	117	119	121	123	124	127	129	132	133	136	139	140	143	145	147	149	153	154	155	161	162	164	165	166	170	176	178	187	188	189	196	197	198	200	202	203	205	206	207	211	212	214	218	220	221	222	230	234	236	241	246	251	256	258	260	261	266	269	270	271	273	279	286
17	2	3	4	5	6	7	8	9	10	11	12	13	14	15	16	17	18	19	20	21	22	23	24	25	26	27	28	29	30	31	32	33	34	35	36	37	38	39	40	41	42	43	44	45	46	47	48	49	50	51	52	53	54	55	56	57	58	59	60	61	62	63	64	65	66	67	68	69	70	71	72	73	75	76	77	78	81	83	84	85	86	88	90	91	92	94	96	97	102	104	105	106	107	108	110	113	114	116	117	119	121	123	124	127	129	132	133	136	139	140	143	145	147	149	153	154	155	161	162	164	165	166	170	176	178	187	188	189	196	197	198	200	202	203	205	206	207	211	212	214	218	220	221	222	230	234	236	241	246	251	256	258	260	261	266	269	270	271	273	279	286
18	2	3	4	5	6	7	8	9	10	11	12	13	14	15	16	17	18	19	20	21	22	23	24	25	26	27	28	29	30	31	32	33	34	35	36	37	38	39	40	41	42	43	44	45	46	47	48	49	50	51	52	53	54	55	56	57	58	59	60	61	62	63	64	65	66	67	68	69	70	71	72	73	75	76	77	78	81	83	84	85	86	88	90	91	92	94	96	97	102	104	105	106	107	108	110	113	114	116	117	119	121	123	124	127	129	132	133	136	139	140	143	145	147	149	153	154	155	161	162	164	165	166	170	176	178	187	188	189	196	197	198	200	202	203	205	206	207	211	212	214	218	220	221	222	230	234	236	241	246	251	256	258	260	261	266	269	270	271	273	279	286
19	2	3	4	5	6	7	8	9	10	11	12	13	14	15	16	17	18	19	20	21	22	23	24	25	26	27	28	29	30	31	32	33	34	35	36	37	38	39	40	41	42	43	44	45	46	47	48	49	50	51	52	53	54	55	56	57	58	59	60	61	62	63	64	65	66	67	68	69	70	71	72	73	75	76	77	78	81	83	84	85	86	88	90	91	92	94	96	97	102	104	105	106	107	108	110	113	114	116	117	119	121	123	124	127	129	132	133	136	139	140	143	145	147	149	153	154	155	161	162	164	165	166	170	176	178	187	188	189	196	197	198	200	202	203	205	206	207	211	212	214	218	220	221	222	230	234	236	241	246	251	256	258	260	261	266	269	270	271	273	279	286
20	2	3	4	5	6	7	8	9	10	11	12	13	14	15	16	17	18	19	20	21	22	23	24	25	26	27	28	29	30	31	32	33	34	35	36	37	38	39	40	41	42	43	44	45	46	47	48	49	50	51	52	53	54	55	56	57	58	59	60	61	62	63	64	65	66	67	68	69	70	71	72	73	75	76	77	78	81	83	84	85	86	88	90	91	92	94	96	97	102	104	105	106	107	108	110	113	114	116	117	119	121	123	124	127	129	132	133	136	139	140	143	145	147	149	153	154	155	161	162	164	165	166	170	176	178	187	188	189	196	197	198	200	202	203	205	206	207	211	212	214	218	220	221	222	230	234	236	241	246	251	256	258	260	261	266	269	270	271	273	279	286
21	2	3	4	5	6	7	8	9	10	11	12	13	14	15	16	17	18	19	20	21	22	23	24	25	26	27	28	29	30	31	32	33	34	35	36	37	38	39	40	41	42	43	44	45	46	47	48	49	50	51	52	53	54	55	56	57	58	59	60	61	62	63	64	65	66	67	68	69	70	71	72	73	75	76	77	78	81	83	84	85	86	88	90	91	92	94	96	97	102	104	105	106	107	108	110	113	114	116	117	119	121	123	124	127	129	132	133	136	139	140	143	145	147	149	153	154	155	161	162	164	165	166	170	176	178	187	188	189	196	197	198	200	202	203	205	206	207	211	212	214	218	220	221	222	230	234	236	241	246	251	256	258	260	261	266	269	270	271	273	279	286
22	2	3	4	5	6	7	8	9	10	11	12	13	14	15	16	17	18	19	20	21	22	23	24	25	26	27	28	29	30	31	32	33	34	35	36	37	38	39	40	41	42	43	44	45	46	47	48	49	50	51	52	53	54	55	56	57	58	59	60	61	62	63	64	65	66	67	68	69	70	71	72	73	74	75	78	79	80	83	84	87	88	89	91	92	96	97	98	99	100	102	104	107	115	116	117	118	120	122	123	124	125	132	133	135	136	137	138	139	141	144	148	149	150	152	154	155	159	160	161	165	167	168	169	171	172	173	176	180	181	183	185	187	188	189	190	191	192	193	194	195	196	197	198	200	201	202	203	205	206	208	209	213	215	216	217	223	225	227	228	237	239	242	245	249	250	252	254	264	274	277	285	287	288	289
23	2	3	4	5	6	7	8	9	10	11	12	13	14	15	16	17	18	19	20	21	22	23	24	25	26	27	28	29	30	31	32	33	34	35	36	37	38	39	40	41	42	43	44	45	46	47	48	49	50	51	52	53	54	55	56	57	58	59	60	61	62	63	64	65	66	67	68	69	70	71	72	73	74	75	78	79	80	83	84	87	88	89	91	92	96	97	98	99	100	102	104	107	115	116	117	118	120	122	123	124	125	132	133	135	136	137	138	139	141	144	148	149	150	152	154	155	159	160	161	165	167	168	169	171	172	173	176	180	181	183	185	187	188	189	190	191	192	193	194	195	196	197	198	200	201	202	203	205	206	208	209	213	215	216	217	223	225	227	228	237	239	242	245	249	250	252	254	264	274	277	285	287	288	289
24	2	3	4	5	6	7	8	9	10	11	12	13	14	15	16	17	18	19	20	21	22	23	24	25	26	27	28	29	30	31	32	33	34	35	36	37	38	39	40	41	42	43	44	45	46	47	48	49	50	51	52	53	54	55	56	57	58	59	60	61	62	63	64	65	66	67	68	69	70	71	72	73	74	75	78	79	80	83	84	87	88	89	91	92	96	97	98	99	100	102	104	107	115	116	117	118	120	122	123	124	125	132	133	135	136	137	138	139	141	144	148	149	150	152	154	155	159	160	161	165	167	168	169	171	172	173	176	180	181	183	185	187	188	189	190	191	192	193	194	195	196	197	198	200	201	202	203	205	206	208	209	213	215	216	217	223	225	227	228	237	239	242	245	249	250	252	254	264	274	277	285	287	288	289
25	2	3	4	5	6	7	8	9	10	11	12	13	14	15	16	17	18	19	20	21	22	23	24	25	26	27	28	29	30	31	32	33	34	35	36	37	38	39	40	41	42	43	44	45	46	47	48	49	50	51	52	53	54	55	56	57	58	59	60	61	62	63	64	65	66	67	68	69	70	71	72	73	74	75	78	79	80	83	84	87	88	89	91	92	96	97	98	99	100	102	104	107	115	116	117	118	120	122	123	124	125	132	133	135	136	137	138	139	141	144	148	149	150	152	154	155	159	160	161	165	167	168	169	171	172	173	176	180	181	183	185	187	188	189	190	191	192	193	194	195	196	197	198	200	201	202	203	205	206	208	209	213	215	216	217	223	225	227	228	237	239	242	245	249	250	252	254	264	274	277	285	287	288	289
26	2	3	4	5	6	7	8	9	10	11	12	13	14	15	16	17	18	19	20	21	22	23	24	25	26	27	28	29	30	31	32	33	34	35	36	37	38	39	40	41	42	43	44	45	46	47	48	49	50	51	52	53	54	55	56	57	58	59	60	61	62	63	64	65	66	67	68	69	70	71	72	73	74	75	78	79	80	83	84	87	88	89	91	92	96	97	98	99	100	102	104	107	115	116	117	118	120	122	123	124	125	132	133	135	136	137	138	139	141	144	148	149	150	152	154	155	159	160	161	165	167	168	169	171	172	173	176	180	181	183	185	187	188	189	190	191	192	193	194	195	196	197	198	200	201	202	203	205	206	208	209	213	215	216	217	223	225	227	228	237	239	242	245	249	250	252	254	264	274	277	285	287	288	289
27	2	3	4	5	6	7	8	9	10	11	12	13	14	15	16	17	18	19	20	21	22	23	24	25	26	27	28	29	30	31	32	33	34	35	36	37	38	39	40	41	42	43	44	45	46	47	48	49	50	51	52	53	54	55	56	57	58	59	60	61	62	63	64	65	66	67	68	69	70	71	72	73	74	75	78	79	80	83	84	87	88	89	91	92	96	97	98	99	100	102	104	107	115	116	117	118	120	122	123	124	125	132	133	135	136	137	138	139	141	144	148	149	150	152	154	155	159	160	161	165	167	168	169	171	172	173	176	180	181	183	185	187	188	189	190	191	192	193	194	195	196	197	198	200	201	202	203	205	206	208	209	213	215	216	217	223	225	227	228	237	239	242	245	249	250	252	254	264	274	277	285	287	288	289
28	2	3	4	5	6	7	8	9	10	11	12	13	14	15	16	17	18	19	20	21	22	23	24	25	26	27	28	29	30	31	32	33	34	35	36	37	38	39	40	41	42	43	44	45	46	47	48	49	50	51	52	53	54	55	56	57	58	59	60	61	62	63	64	65	66	67	68	69	70	71	72	73	74	75	78	79	80	83	84	87	88	89	91	92	96	97	98	99	100	102	104	107	115	116	117	118	120	122	123	124	125	132	133	135	136	137	138	139	141	144	148	149	150	152	154	155	159	160	161	165	167	168	169	171	172	173	176	180	181	183	185	187	188	189	190	191	192	193	194	195	196	197	198	200	201	202	203	205	206	208	209	213	215	216	217	223	225	227	228	237	239	242	245	249	250	252	254	264	274	277	285	287	288	289
EOF
