SDVRPTW/PR06.sol
Route #1: 11 279 130 266 157 79 42 166 274
Route #2: 30 141 110 159 200 6 121 36 73
Route #3: 223 225 2 37 230 133 100 262
Route #4: 143 281 114 94 21 57 92
Route #5: 282 155 207 252 242 194 69 261 140 134
Route #6: 3 98 25 275 45 183 277 71
Route #7: 192 232 31 280 137 218 283
Route #8: 15 206 44 185 51 139 243 228 254 43 128 256 65
Route #9: 111 48 162 213 93 173 145 76 129 109 181 22
Route #10: 246 176 102 105 211 231 271 165 174 209
Route #11: 127 8 178 19 66 1 234 152 239 267 118 258
Route #12: 113 12 198 108 33 112 163 81 84 203
Route #13: 161 237 35 125 247 150 264 156
Route #14:
Route #15: 154 63 268 116 47 90 210 199 250 240
Route #16: 220 18 107 272 17 103 80 221 177 229 4
Route #17: 41 259 144 260 186 257 219 142 26 120 195 64 160 204 75 62
Route #18: 14 285 270 233 126 148 70 60 146 131
Route #19: 269 29 9 132 235 217 85 104 89 245 187 205
Route #20: 196 138 91 255 10 68 59 28 169 61 278 23 95 265 96
Route #21:
Route #22: 171 182 188 251 189 263 135 201 175 153 193 244 208 20
Route #23: 74 179 136 180 27 101 172 164 170 78 248 168 49
Route #24: 273 184 77 216 83 284 167 147 249
Route #25: 287 38 13 215 97 39 202 226 34 190 54 67 253 122 86
Route #26: 124 88 227 50 276 24 5 53 58 191 241 106 197 212 52 158
Route #27: 224 119 149 288 214 16 72 56 151 82 7 55 238 222
Route #28: 123 99 115 286 117 87 46 236 40 32
Cost: 5625057
